0.00 54.50 68.00 47.50 22.00 29.00 78.00 57.00 77.50 36.00
54.50 0.00 23.50 64.00 58.50 71.00 33.00 73.00 55.50 11.50
68.00 23.50 0.00 44.00 69.50 69.00 40.00 24.00 51.00 41.00
47.50 64.00 44.00 0.00 46.50 69.50 52.50 44.50 64.50 80.00
22.00 58.50 69.50 46.50 0.00 48.00 34.50 43.50 31.00 72.50
29.00 71.00 69.00 69.50 48.00 0.00 48.00 8.00 25.50 86.50
78.00 33.00 40.00 52.50 34.50 48.00 0.00 33.50 75.50 75.50
57.00 73.00 24.00 44.50 43.50 8.00 33.50 0.00 44.00 42.00
77.50 55.50 51.00 64.50 31.00 25.50 75.50 44.00 0.00 23.00
36.00 11.50 41.00 80.00 72.50 86.50 75.50 42.00 23.00 0.00
